136497
48, 73, 2, 22, 21, 17, 90, 64, 16, 20, 40, 6, 77, 46, 86, 62, 7, 18, 49, 37, 39, 53, 51, 100, 35, 75, 103, 4, 15, 61, 47, 14, 26, 50, 68, 99, 19, 98, 69, 3, 94, 70, 101, 105, 38, 104, 41, 67, 43, 79, 91, 60, 54, 71, 36, 45, 72, 82, 63, 32, 84, 33, 81, 42, 9, 106, 88, 13, 31, 65, 52, 5, 96, 78, 11, 95, 85, 56, 25, 30, 29, 55, 97, 8, 92, 23, 12, 93, 89, 80, 57, 83, 34, 74, 102, 24, 76, 58, 1, 87, 28, 27, 10, 59, 66, 44
